N: 5000
R: 1000
Capacities: 1234188
------
Total value: 1234188
Total weight: 1234188
Packed Items: [0, 1, 2, 3, 4, 5, 6, 7, 8, 9, 10, 11, 12, 13, 14, 15, 16, 17, 18, 19, 20, 21, 22, 23, 24, 25, 26, 27, 28, 29, 30, 31, 32, 33, 34, 35, 36, 37, 38, 39, 40, 41, 42, 43, 44, 45, 46, 47, 48, 49, 50, 51, 52, 53, 54, 55, 56, 57, 58, 59, 60, 61, 62, 63, 64, 65, 66, 67, 68, 69, 70, 71, 72, 73, 74, 75, 76, 77, 78, 79, 80, 81, 82, 83, 84, 85, 86, 87, 88, 89, 90, 91, 92, 93, 94, 95, 96, 97, 98, 99, 100, 101, 102, 103, 104, 105, 106, 107, 108, 109, 110, 111, 112, 113, 114, 115, 116, 117, 118, 119, 120, 121, 122, 123, 124, 125, 126, 127, 128, 129, 130, 131, 132, 133, 134, 135, 136, 137, 138, 139, 140, 141, 142, 143, 144, 145, 146, 147, 148, 149, 150, 151, 152, 153, 154, 155, 156, 157, 158, 159, 160, 161, 162, 163, 164, 165, 166, 167, 168, 169, 170, 171, 172, 173, 174, 175, 176, 177, 178, 179, 180, 181, 182, 183, 184, 185, 186, 187, 188, 189, 190, 191, 192, 193, 194, 195, 196, 197, 198, 199, 200, 201, 202, 203, 204, 205, 206, 207, 208, 209, 210, 211, 212, 213, 214, 215, 216, 217, 218, 219, 220, 221, 222, 223, 224, 225, 226, 227, 228, 229, 230, 231, 232, 233, 234, 235, 236, 237, 238, 239, 240, 241, 242, 243, 244, 245, 246, 247, 248, 249, 250, 251, 252, 253, 254, 255, 256, 257, 258, 259, 260, 261, 262, 263, 264, 265, 266, 267, 268, 269, 270, 271, 272, 273, 274, 275, 276, 277, 278, 279, 280, 281, 282, 283, 284, 285, 286, 287, 288, 289, 290, 291, 292, 293, 294, 295, 296, 297, 298, 299, 300, 301, 302, 303, 304, 305, 306, 307, 308, 309, 310, 311, 312, 313, 314, 315, 316, 317, 318, 319, 320, 321, 322, 323, 324, 325, 326, 327, 328, 329, 330, 331, 332, 333, 334, 335, 336, 337, 338, 339, 340, 341, 342, 343, 344, 345, 346, 347, 348, 349, 350, 351, 352, 353, 354, 355, 356, 357, 358, 359, 360, 361, 362, 363, 364, 365, 366, 367, 368, 369, 370, 371, 372, 373, 374, 375, 376, 377, 378, 379, 380, 381, 382, 383, 384, 385, 386, 387, 388, 389, 390, 391, 392, 393, 394, 395, 396, 397, 398, 399, 400, 401, 402, 403, 404, 405, 406, 407, 408, 409, 410, 411, 412, 413, 414, 415, 416, 417, 418, 419, 420, 421, 422, 423, 424, 425, 426, 427, 428, 429, 430, 431, 432, 433, 434, 435, 436, 437, 438, 439, 440, 441, 442, 443, 444, 445, 446, 447, 448, 449, 450, 451, 452, 453, 454, 455, 456, 457, 458, 459, 460, 461, 462, 463, 464, 465, 466, 467, 468, 469, 470, 471, 472, 473, 474, 475, 476, 477, 478, 479, 480, 481, 482, 483, 484, 485, 486, 487, 488, 489, 490, 491, 492, 493, 494, 495, 496, 497, 498, 499, 500, 501, 502, 503, 504, 505, 506, 507, 508, 509, 510, 511, 512, 513, 514, 515, 516, 517, 518, 519, 520, 521, 522, 523, 524, 525, 526, 527, 528, 529, 530, 531, 532, 533, 534, 535, 536, 537, 538, 539, 540, 541, 542, 543, 544, 545, 546, 547, 548, 549, 550, 551, 552, 553, 554, 555, 556, 557, 558, 559, 560, 561, 562, 563, 564, 565, 566, 567, 568, 569, 570, 571, 572, 573, 574, 575, 576, 577, 578, 579, 580, 581, 582, 583, 584, 585, 586, 587, 588, 589, 590, 591, 592, 593, 594, 595, 596, 597, 598, 599, 600, 601, 602, 603, 604, 605, 606, 607, 608, 609, 610, 611, 612, 613, 614, 615, 616, 617, 618, 619, 620, 621, 622, 623, 624, 625, 626, 627, 628, 629, 630, 631, 632, 633, 634, 635, 636, 637, 638, 639, 640, 641, 642, 643, 644, 645, 646, 647, 648, 649, 650, 651, 652, 653, 654, 655, 656, 657, 658, 659, 660, 661, 662, 663, 664, 665, 666, 667, 668, 669, 670, 671, 672, 673, 674, 675, 676, 677, 678, 679, 680, 681, 682, 683, 684, 685, 686, 687, 688, 689, 690, 691, 692, 693, 694, 695, 696, 697, 698, 699, 700, 701, 702, 703, 704, 705, 706, 707, 708, 709, 710, 711, 712, 713, 714, 715, 716, 717, 718, 719, 720, 721, 722, 723, 724, 725, 726, 727, 728, 729, 730, 731, 732, 733, 734, 735, 736, 737, 738, 739, 740, 741, 742, 743, 744, 745, 746, 747, 748, 749, 750, 751, 752, 753, 754, 755, 756, 757, 758, 759, 760, 761, 762, 763, 764, 765, 766, 767, 768, 769, 770, 771, 772, 773, 774, 775, 776, 777, 778, 779, 780, 781, 782, 783, 784, 785, 786, 787, 788, 789, 790, 791, 792, 793, 794, 795, 796, 797, 798, 799, 800, 801, 802, 803, 804, 805, 806, 807, 808, 809, 810, 811, 812, 813, 814, 815, 816, 817, 818, 819, 820, 821, 822, 823, 824, 825, 826, 827, 828, 829, 830, 831, 832, 833, 834, 835, 836, 837, 838, 839, 840, 841, 842, 843, 844, 845, 846, 847, 848, 849, 850, 851, 852, 853, 854, 855, 856, 857, 858, 859, 860, 861, 862, 863, 864, 865, 866, 867, 868, 869, 870, 871, 872, 873, 874, 875, 876, 877, 878, 879, 880, 881, 882, 883, 884, 885, 886, 887, 888, 889, 890, 891, 892, 893, 894, 895, 896, 897, 898, 899, 900, 901, 902, 903, 904, 905, 906, 907, 908, 909, 910, 911, 912, 913, 914, 915, 916, 917, 918, 919, 920, 921, 922, 923, 924, 925, 926, 927, 928, 929, 930, 931, 932, 933, 934, 935, 936, 937, 938, 939, 940, 941, 942, 943, 944, 945, 946, 947, 948, 949, 950, 951, 952, 953, 954, 955, 956, 957, 958, 959, 960, 961, 962, 963, 964, 965, 966, 967, 968, 969, 970, 971, 972, 973, 974, 975, 976, 977, 978, 979, 980, 981, 982, 983, 984, 985, 986, 987, 988, 989, 990, 991, 992, 993, 994, 995, 996, 997, 998, 999, 1000, 1001, 1002, 1003, 1004, 1005, 1006, 1007, 1008, 1009, 1010, 1011, 1012, 1013, 1014, 1015, 1016, 1017, 1018, 1019, 1020, 1021, 1022, 1023, 1024, 1025, 1026, 1027, 1028, 1029, 1030, 1031, 1032, 1033, 1034, 1035, 1036, 1037, 1038, 1039, 1040, 1041, 1042, 1043, 1044, 1045, 1046, 1047, 1048, 1049, 1050, 1051, 1052, 1053, 1054, 1055, 1056, 1057, 1058, 1059, 1060, 1061, 1062, 1063, 1064, 1065, 1066, 1067, 1068, 1069, 1070, 1071, 1072, 1073, 1074, 1075, 1076, 1077, 1078, 1079, 1080, 1081, 1082, 1083, 1084, 1085, 1086, 1087, 1088, 1089, 1090, 1091, 1092, 1093, 1094, 1095, 1096, 1097, 1098, 1099, 1100, 1101, 1102, 1103, 1104, 1105, 1106, 1107, 1108, 1109, 1110, 1111, 1112, 1113, 1114, 1115, 1116, 1117, 1118, 1119, 1120, 1121, 1122, 1123, 1124, 1125, 1126, 1127, 1128, 1129, 1130, 1131, 1132, 1133, 1134, 1135, 1136, 1137, 1138, 1139, 1140, 1141, 1142, 1143, 1144, 1145, 1146, 1147, 1148, 1149, 1150, 1151, 1152, 1153, 1154, 1155, 1156, 1157, 1158, 1159, 1160, 1161, 1162, 1163, 1164, 1165, 1166, 1167, 1168, 1169, 1170, 1171, 1172, 1173, 1174, 1175, 1176, 1177, 1178, 1179, 1180, 1181, 1182, 1183, 1184, 1185, 1186, 1187, 1188, 1189, 1190, 1191, 1192, 1193, 1194, 1195, 1196, 1197, 1198, 1199, 1200, 1201, 1202, 1203, 1204, 1205, 1206, 1207, 1208, 1209, 1210, 1211, 1212, 1213, 1214, 1215, 1216, 1217, 1218, 1219, 1220, 1221, 1222, 1223, 1224, 1225, 1226, 1227, 1228, 1229, 1230, 1231, 1232, 1233, 1234, 1235, 1236, 1237, 1238, 1239, 1240, 1241, 1242, 1243, 1244, 1245, 1246, 1247, 1248, 1249, 1250, 1251, 1252, 1253, 1254, 1255, 1256, 1257, 1258, 1259, 1260, 1261, 1262, 1263, 1264, 1265, 1266, 1267, 1268, 1269, 1270, 1271, 1272, 1273, 1274, 1275, 1276, 1277, 1278, 1279, 1280, 1281, 1282, 1283, 1284, 1285, 1286, 1287, 1288, 1289, 1290, 1291, 1292, 1293, 1294, 1295, 1296, 1297, 1298, 1299, 1300, 1301, 1302, 1303, 1304, 1305, 1306, 1307, 1308, 1309, 1310, 1311, 1312, 1313, 1314, 1315, 1316, 1317, 1318, 1319, 1320, 1321, 1322, 1323, 1324, 1325, 1326, 1327, 1328, 1329, 1330, 1331, 1332, 1333, 1334, 1335, 1336, 1337, 1338, 1339, 1340, 1341, 1342, 1343, 1344, 1345, 1346, 1347, 1348, 1349, 1350, 1351, 1352, 1353, 1354, 1355, 1356, 1357, 1358, 1359, 1360, 1361, 1362, 1363, 1364, 1365, 1366, 1367, 1368, 1369, 1370, 1371, 1372, 1373, 1374, 1375, 1376, 1377, 1378, 1379, 1380, 1381, 1382, 1383, 1384, 1385, 1386, 1387, 1388, 1389, 1390, 1391, 1392, 1393, 1394, 1395, 1396, 1397, 1398, 1399, 1400, 1401, 1402, 1403, 1404, 1405, 1406, 1407, 1408, 1409, 1410, 1411, 1412, 1413, 1414, 1415, 1416, 1417, 1418, 1419, 1420, 1421, 1422, 1423, 1424, 1425, 1426, 1427, 1428, 1429, 1430, 1431, 1432, 1433, 1434, 1435, 1436, 1437, 1438, 1439, 1440, 1441, 1442, 1443, 1444, 1445, 1446, 1447, 1448, 1449, 1450, 1451, 1452, 1453, 1454, 1455, 1456, 1457, 1458, 1459, 1460, 1461, 1462, 1463, 1464, 1465, 1466, 1467, 1468, 1469, 1470, 1471, 1472, 1473, 1474, 1475, 1476, 1477, 1478, 1479, 1480, 1481, 1482, 1483, 1484, 1485, 1486, 1487, 1488, 1489, 1490, 1491, 1492, 1493, 1494, 1495, 1496, 1497, 1498, 1499, 1500, 1501, 1502, 1503, 1504, 1505, 1506, 1507, 1508, 1509, 1510, 1511, 1512, 1513, 1514, 1515, 1516, 1517, 1518, 1519, 1520, 1521, 1522, 1523, 1524, 1525, 1526, 1527, 1528, 1529, 1530, 1531, 1532, 1533, 1534, 1535, 1536, 1537, 1538, 1539, 1540, 1541, 1542, 1543, 1544, 1545, 1546, 1547, 1548, 1549, 1550, 1551, 1552, 1553, 1554, 1555, 1556, 1557, 1558, 1559, 1560, 1561, 1562, 1563, 1564, 1565, 1566, 1567, 1568, 1569, 1570, 1571, 1572, 1573, 1574, 1575, 1576, 1577, 1578, 1579, 1580, 1581, 1582, 1583, 1584, 1585, 1586, 1587, 1588, 1589, 1590, 1591, 1592, 1593, 1594, 1595, 1596, 1597, 1598, 1599, 1600, 1601, 1602, 1603, 1604, 1605, 1606, 1607, 1608, 1609, 1610, 1611, 1612, 1613, 1614, 1615, 1616, 1617, 1618, 1619, 1620, 1621, 1622, 1623, 1624, 1625, 1626, 1627, 1628, 1629, 1630, 1631, 1632, 1633, 1634, 1635, 1636, 1637, 1638, 1639, 1640, 1641, 1642, 1643, 1644, 1645, 1646, 1647, 1648, 1649, 1650, 1651, 1652, 1653, 1654, 1655, 1656, 1657, 1658, 1659, 1660, 1661, 1662, 1663, 1664, 1665, 1666, 1667, 1668, 1669, 1670, 1671, 1672, 1673, 1674, 1675, 1676, 1677, 1678, 1679, 1680, 1681, 1682, 1683, 1684, 1685, 1686, 1687, 1688, 1689, 1690, 1691, 1692, 1693, 1694, 1695, 1696, 1697, 1698, 1699, 1700, 1701, 1702, 1703, 1704, 1705, 1706, 1707, 1708, 1709, 1710, 1711, 1712, 1713, 1714, 1715, 1716, 1717, 1718, 1719, 1720, 1721, 1722, 1723, 1724, 1725, 1726, 1727, 1728, 1729, 1730, 1731, 1732, 1733, 1734, 1735, 1736, 1737, 1738, 1739, 1740, 1741, 1742, 1743, 1744, 1745, 1746, 1747, 1748, 1749, 1750, 1751, 1752, 1753, 1754, 1755, 1756, 1757, 1758, 1759, 1760, 1761, 1762, 1763, 1764, 1765, 1766, 1767, 1768, 1769, 1770, 1771, 1772, 1773, 1774, 1775, 1776, 1777, 1778, 1779, 1780, 1781, 1782, 1783, 1784, 1785, 1786, 1787, 1788, 1789, 1790, 1791, 1792, 1793, 1794, 1795, 1796, 1797, 1798, 1799, 1800, 1801, 1802, 1803, 1804, 1805, 1806, 1807, 1808, 1809, 1810, 1811, 1812, 1813, 1814, 1815, 1816, 1817, 1818, 1819, 1820, 1821, 1822, 1823, 1824, 1825, 1826, 1827, 1828, 1829, 1830, 1831, 1832, 1833, 1834, 1835, 1836, 1837, 1838, 1839, 1840, 1841, 1842, 1843, 1844, 1845, 1846, 1847, 1848, 1849, 1850, 1851, 1852, 1853, 1854, 1855, 1856, 1857, 1858, 1859, 1860, 1861, 1862, 1863, 1864, 1865, 1866, 1867, 1868, 1869, 1870, 1871, 1872, 1873, 1874, 1875, 1876, 1877, 1878, 1879, 1880, 1881, 1882, 1883, 1884, 1885, 1886, 1887, 1888, 1889, 1890, 1891, 1892, 1893, 1894, 1895, 1896, 1897, 1898, 1899, 1900, 1901, 1902, 1903, 1904, 1905, 1906, 1907, 1908, 1909, 1910, 1911, 1912, 1913, 1914, 1915, 1916, 1917, 1918, 1919, 1920, 1921, 1922, 1923, 1924, 1925, 1926, 1927, 1928, 1929, 1930, 1931, 1932, 1933, 1934, 1935, 1936, 1937, 1938, 1939, 1940, 1941, 1942, 1943, 1944, 1945, 1946, 1947, 1948, 1949, 1950, 1951, 1952, 1953, 1954, 1955, 1956, 1957, 1958, 1959, 1960, 1961, 1962, 1963, 1964, 1965, 1966, 1967, 1968, 1969, 1970, 1971, 1972, 1973, 1974, 1975, 1976, 1977, 1978, 1979, 1980, 1981, 1982, 1983, 1984, 1985, 1986, 1987, 1988, 1989, 1990, 1991, 1992, 1993, 1994, 1995, 1996, 1997, 1998, 1999, 2000, 2001, 2002, 2003, 2004, 2005, 2006, 2007, 2008, 2009, 2010, 2011, 2012, 2013, 2014, 2015, 2016, 2017, 2018, 2019, 2020, 2021, 2022, 2023, 2024, 2025, 2026, 2027, 2028, 2029, 2030, 2031, 2032, 2033, 2034, 2035, 2036, 2037, 2038, 2039, 2040, 2041, 2042, 2043, 2044, 2045, 2046, 2047, 2048, 2049, 2050, 2051, 2052, 2053, 2054, 2055, 2056, 2057, 2058, 2059, 2060, 2061, 2062, 2063, 2064, 2065, 2066, 2067, 2068, 2069, 2070, 2071, 2072, 2073, 2074, 2075, 2076, 2077, 2078, 2079, 2080, 2081, 2082, 2083, 2084, 2085, 2086, 2087, 2088, 2089, 2090, 2091, 2092, 2093, 2094, 2095, 2096, 2097, 2098, 2099, 2100, 2101, 2102, 2103, 2104, 2105, 2106, 2107, 2108, 2109, 2110, 2111, 2112, 2113, 2114, 2115, 2116, 2117, 2118, 2119, 2120, 2121, 2122, 2123, 2124, 2125, 2126, 2127, 2128, 2129, 2130, 2131, 2132, 2133, 2134, 2135, 2136, 2137, 2138, 2139, 2140, 2141, 2142, 2143, 2144, 2145, 2146, 2147, 2148, 2149, 2150, 2151, 2152, 2153, 2154, 2155, 2156, 2157, 2158, 2159, 2160, 2161, 2162, 2163, 2164, 2165, 2166, 2167, 2168, 2169, 2170, 2171, 2172, 2173, 2174, 2175, 2176, 2177, 2178, 2179, 2180, 2181, 2182, 2183, 2184, 2185, 2186, 2187, 2188, 2189, 2190, 2191, 2192, 2193, 2194, 2195, 2196, 2197, 2198, 2199, 2200, 2201, 2202, 2203, 2204, 2205, 2206, 2207, 2208, 2209, 2210, 2211, 2212, 2213, 2214, 2215, 2216, 2217, 2218, 2219, 2220, 2221, 2222, 2223, 2224, 2225, 2226, 2227, 2228, 2229, 2230, 2231, 2232, 2233, 2234, 2235, 2236, 2237, 2238, 2239, 2240, 2241, 2242, 2243, 2244, 2245, 2246, 2247, 2248, 2249, 2250, 2251, 2252, 2253, 2254, 2255, 2256, 2257, 2258, 2259, 2260, 2261, 2262, 2263, 2264, 2265, 2266, 2267, 2268, 2269, 2270, 2271, 2272, 2273, 2274, 2275, 2276, 2277, 2278, 2279, 2280, 2281, 2282, 2283, 2284, 2285, 2286, 2287, 2288, 2289, 2290, 2291, 2292, 2293, 2294, 2295, 2296, 2297, 2298, 2299, 2300, 2301, 2302, 2303, 2304, 2305, 2306, 2307, 2308, 2309, 2310, 2311, 2312, 2313, 2314, 2315, 2316, 2317, 2318, 2319, 2320, 2321, 2322, 2323, 2324, 2325, 2326, 2327, 2328, 2329, 2330, 2331, 2332, 2333, 2334, 2335, 2336, 2337, 2338, 2339, 2340, 2341, 2342, 2343, 2344, 2345, 2346, 2347, 2348, 2349, 2350, 2351, 2352, 2353, 2354, 2355, 2356, 2357, 2358, 2359, 2360, 2361, 2362, 2363, 2364, 2365, 2366, 2367, 2368, 2369, 2370, 2371, 2372, 2373, 2374, 2375, 2376, 2377, 2378, 2379, 2380, 2382, 2383, 2384, 2385, 2386, 2387, 2388, 2389, 2390, 2391, 2392, 2393, 2394, 2395, 2396, 2397, 2398, 2399, 2400, 2401, 2402, 2403, 2404, 2405, 2406, 2407, 2408, 2409, 2410, 2411, 2412, 2413, 2414, 2415, 2416, 2417, 2418, 2419, 2420, 2421, 2422, 2423, 2424, 2425, 2426, 2427, 2428, 2429, 2430, 2431, 2432, 2433, 2434, 2435, 2436, 2437, 2438, 2439, 2440, 2441, 2442, 2443, 2444, 2445, 2446, 2447, 2448, 2449, 2450, 2451, 2452, 2453, 2454, 2455, 2456, 2457, 2458, 2459, 2460, 2461, 2462, 2463, 2464, 2465, 2466, 2467, 2468, 2469, 2470, 2471, 2472, 2473, 2474, 2475, 2476, 2477, 2478, 2479, 2480, 2481, 2482, 2483, 2484, 2485, 2486, ]
Packed Weights: [227, 963, 127, 705, 86, 248, 1000, 210, 642, 460, 454, 495, 193, 831, 90, 235, 20, 267, 408, 903, 380, 114, 259, 992, 64, 621, 378, 661, 339, 692, 498, 650, 902, 582, 143, 65, 947, 489, 194, 947, 579, 729, 881, 286, 357, 879, 135, 765, 98, 691, 703, 950, 844, 504, 198, 151, 529, 510, 72, 904, 508, 702, 220, 244, 12, 344, 267, 424, 377, 835, 892, 176, 397, 167, 664, 975, 202, 767, 301, 14, 765, 342, 171, 436, 232, 411, 447, 418, 589, 289, 96, 86, 107, 521, 361, 808, 505, 709, 981, 63, 17, 141, 387, 574, 744, 352, 965, 3, 836, 211, 876, 34, 966, 760, 991, 581, 178, 970, 442, 84, 606, 498, 474, 155, 123, 581, 453, 127, 440, 726, 716, 472, 394, 361, 226, 198, 447, 109, 726, 709, 612, 23, 365, 433, 94, 968, 756, 503, 706, 201, 230, 526, 744, 648, 7, 614, 909, 744, 928, 982, 224, 297, 548, 977, 370, 942, 851, 517, 626, 958, 784, 296, 846, 196, 370, 959, 848, 312, 291, 614, 843, 685, 937, 729, 821, 605, 363, 428, 490, 529, 839, 269, 69, 734, 271, 420, 118, 830, 274, 292, 805, 505, 278, 889, 412, 362, 966, 791, 748, 250, 814, 597, 830, 368, 781, 794, 388, 655, 781, 994, 921, 787, 137, 611, 686, 88, 463, 869, 906, 926, 93, 608, 866, 653, 320, 39, 920, 860, 654, 367, 829, 815, 725, 600, 320, 297, 358, 327, 521, 114, 722, 349, 160, 255, 390, 432, 783, 100, 223, 294, 177, 750, 110, 51, 556, 737, 826, 560, 327, 882, 737, 479, 563, 937, 998, 932, 133, 327, 408, 169, 763, 61, 888, 586, 614, 415, 937, 579, 897, 923, 693, 984, 490, 367, 845, 528, 309, 681, 476, 128, 838, 500, 972, 534, 937, 290, 218, 527, 767, 825, 648, 125, 395, 35, 372, 945, 348, 699, 622, 144, 689, 80, 185, 580, 128, 965, 426, 631, 966, 109, 1000, 40, 602, 656, 986, 359, 947, 651, 477, 170, 236, 366, 347, 372, 809, 375, 629, 39, 141, 710, 891, 314, 33, 233, 361, 367, 562, 302, 648, 786, 784, 742, 585, 261, 842, 290, 861, 448, 630, 500, 654, 342, 579, 737, 362, 601, 457, 471, 384, 547, 710, 174, 147, 824, 89, 794, 760, 218, 637, 254, 882, 198, 116, 37, 719, 212, 315, 977, 737, 738, 576, 641, 12, 813, 330, 855, 415, 912, 1, 981, 96, 511, 482, 987, 717, 982, 906, 426, 148, 146, 710, 952, 666, 347, 598, 657, 254, 694, 200, 28, 65, 489, 697, 226, 397, 694, 264, 523, 603, 407, 209, 693, 702, 189, 808, 656, 867, 781, 495, 716, 315, 654, 83, 346, 507, 886, 684, 910, 870, 971, 618, 617, 469, 222, 797, 611, 162, 240, 221, 723, 598, 201, 688, 564, 267, 445, 993, 141, 237, 594, 840, 922, 400, 769, 119, 387, 857, 666, 447, 599, 488, 548, 885, 976, 201, 756, 945, 608, 501, 373, 485, 581, 612, 114, 999, 276, 548, 199, 632, 75, 336, 385, 313, 488, 159, 491, 796, 629, 971, 951, 478, 468, 763, 880, 541, 668, 691, 514, 509, 402, 449, 475, 803, 160, 118, 924, 511, 697, 916, 737, 567, 953, 625, 447, 183, 160, 793, 897, 358, 530, 679, 607, 276, 912, 552, 715, 689, 439, 702, 190, 548, 652, 630, 293, 182, 102, 124, 185, 486, 569, 707, 438, 768, 30, 349, 120, 517, 573, 584, 444, 369, 329, 107, 194, 487, 568, 101, 846, 28, 127, 449, 333, 521, 690, 595, 786, 471, 677, 418, 127, 75, 182, 444, 277, 561, 668, 920, 150, 958, 2, 890, 985, 366, 799, 506, 563, 858, 942, 301, 220, 917, 592, 902, 222, 850, 160, 147, 289, 928, 388, 441, 289, 75, 442, 497, 335, 731, 310, 980, 910, 579, 102, 560, 622, 651, 426, 726, 997, 703, 42, 629, 624, 546, 939, 53, 18, 723, 101, 138, 818, 362, 884, 801, 663, 359, 83, 977, 871, 918, 509, 281, 628, 420, 192, 113, 408, 149, 268, 978, 934, 886, 513, 763, 164, 621, 975, 791, 987, 628, 304, 21, 271, 829, 528, 624, 803, 296, 141, 888, 601, 28, 697, 722, 762, 132, 274, 724, 670, 347, 969, 303, 892, 136, 458, 993, 695, 758, 884, 628, 546, 825, 532, 959, 762, 2, 288, 885, 118, 16, 582, 694, 981, 963, 627, 700, 531, 850, 693, 129, 627, 51, 336, 334, 921, 221, 377, 565, 206, 454, 297, 722, 794, 583, 868, 492, 747, 95, 388, 323, 887, 499, 377, 667, 955, 831, 804, 667, 804, 562, 389, 317, 263, 337, 501, 862, 237, 392, 262, 482, 62, 623, 859, 912, 359, 169, 731, 756, 191, 61, 670, 380, 523, 565, 884, 126, 260, 35, 689, 80, 854, 610, 513, 268, 870, 115, 581, 830, 658, 50, 112, 286, 731, 138, 956, 886, 573, 877, 636, 161, 405, 25, 439, 990, 404, 665, 360, 675, 335, 914, 411, 270, 430, 76, 330, 739, 405, 447, 235, 825, 885, 409, 2, 428, 875, 652, 229, 106, 887, 80, 616, 596, 183, 442, 863, 998, 75, 32, 260, 51, 929, 81, 368, 857, 464, 234, 63, 227, 311, 848, 434, 553, 263, 408, 928, 115, 702, 314, 419, 721, 350, 489, 488, 485, 74, 393, 380, 420, 287, 449, 741, 74, 76, 536, 578, 800, 33, 10, 608, 216, 494, 295, 88, 561, 316, 487, 870, 450, 843, 293, 182, 403, 298, 728, 121, 724, 220, 409, 216, 145, 139, 987, 100, 925, 461, 883, 180, 584, 683, 307, 614, 904, 417, 30, 610, 782, 455, 840, 356, 452, 433, 95, 72, 638, 890, 184, 905, 327, 418, 42, 8, 576, 885, 636, 130, 662, 130, 470, 750, 388, 318, 321, 291, 16, 727, 392, 188, 311, 42, 471, 584, 622, 445, 990, 151, 197, 562, 413, 304, 726, 515, 566, 692, 422, 512, 988, 162, 466, 613, 764, 89, 116, 268, 668, 210, 36, 420, 155, 688, 950, 754, 569, 407, 27, 436, 521, 301, 409, 943, 373, 263, 442, 935, 42, 467, 990, 529, 318, 333, 692, 132, 951, 693, 911, 162, 18, 321, 468, 529, 623, 36, 937, 152, 187, 127, 381, 161, 715, 353, 126, 368, 823, 549, 69, 588, 493, 519, 750, 145, 699, 772, 917, 386, 223, 710, 997, 971, 595, 321, 923, 153, 644, 857, 562, 743, 429, 704, 215, 682, 139, 174, 121, 323, 7, 703, 914, 839, 42, 494, 133, 573, 13, 953, 455, 175, 415, 312, 485, 413, 968, 315, 66, 553, 477, 357, 963, 845, 410, 139, 882, 804, 926, 401, 234, 524, 527, 735, 141, 965, 538, 290, 603, 67, 829, 539, 203, 51, 534, 799, 239, 957, 609, 513, 969, 355, 703, 377, 350, 526, 951, 97, 400, 55, 414, 66, 803, 679, 962, 734, 348, 619, 161, 435, 106, 968, 667, 255, 538, 392, 889, 676, 706, 625, 152, 570, 849, 371, 5, 310, 19, 568, 478, 110, 865, 251, 443, 149, 525, 571, 707, 14, 156, 151, 307, 809, 851, 739, 560, 25, 288, 511, 736, 382, 452, 315, 527, 434, 366, 923, 608, 663, 857, 741, 259, 751, 617, 525, 703, 834, 293, 291, 535, 97, 787, 202, 310, 783, 889, 260, 124, 673, 613, 403, 176, 971, 100, 863, 236, 249, 416, 135, 760, 191, 274, 341, 806, 38, 738, 281, 654, 969, 184, 30, 299, 710, 232, 324, 982, 863, 960, 214, 694, 311, 703, 825, 660, 502, 653, 688, 164, 712, 127, 854, 343, 90, 18, 606, 71, 406, 44, 689, 864, 25, 614, 648, 557, 968, 312, 896, 540, 224, 278, 102, 764, 223, 589, 774, 257, 652, 680, 429, 784, 429, 145, 92, 147, 726, 505, 142, 946, 12, 593, 479, 889, 600, 844, 224, 532, 781, 373, 731, 416, 344, 274, 683, 987, 40, 214, 66, 171, 506, 562, 694, 127, 849, 197, 782, 396, 516, 838, 914, 540, 61, 312, 713, 819, 890, 556, 104, 280, 426, 135, 349, 311, 726, 463, 576, 297, 723, 551, 84, 924, 109, 248, 87, 798, 860, 459, 764, 800, 859, 946, 650, 601, 35, 220, 993, 530, 940, 222, 818, 795, 733, 311, 995, 334, 996, 940, 89, 75, 408, 264, 397, 181, 752, 96, 599, 328, 336, 606, 17, 751, 467, 741, 822, 919, 11, 263, 345, 545, 297, 436, 503, 768, 85, 375, 237, 426, 357, 242, 936, 2, 36, 731, 214, 919, 637, 831, 956, 751, 966, 177, 203, 24, 1, 801, 708, 300, 145, 100, 513, 990, 2, 562, 699, 251, 157, 919, 781, 334, 956, 452, 842, 703, 463, 368, 96, 372, 729, 326, 311, 329, 81, 870, 648, 621, 844, 605, 413, 855, 228, 747, 978, 126, 238, 367, 731, 521, 401, 904, 418, 224, 32, 972, 995, 973, 592, 541, 950, 546, 351, 660, 242, 510, 190, 231, 380, 696, 818, 67, 499, 844, 97, 236, 641, 299, 903, 34, 676, 584, 269, 726, 294, 78, 507, 65, 578, 208, 492, 964, 684, 561, 791, 421, 575, 939, 977, 7, 629, 754, 849, 520, 116, 421, 268, 506, 125, 118, 947, 470, 790, 612, 397, 606, 902, 149, 683, 963, 981, 568, 52, 694, 482, 975, 242, 124, 97, 564, 643, 485, 872, 991, 141, 530, 444, 86, 195, 553, 431, 285, 65, 706, 892, 156, 869, 402, 930, 949, 963, 26, 744, 42, 43, 579, 277, 961, 516, 278, 514, 487, 16, 878, 600, 717, 838, 779, 16, 689, 630, 658, 580, 876, 83, 379, 794, 388, 930, 927, 563, 722, 63, 284, 532, 2, 649, 519, 140, 666, 449, 70, 220, 189, 525, 516, 410, 886, 38, 829, 447, 177, 268, 241, 994, 581, 291, 287, 904, 265, 849, 329, 18, 5, 910, 940, 859, 541, 16, 538, 252, 456, 871, 187, 703, 125, 45, 120, 376, 113, 744, 430, 491, 219, 580, 26, 121, 162, 305, 836, 287, 208, 478, 4, 360, 614, 579, 870, 457, 541, 135, 543, 890, 604, 60, 411, 754, 29, 915, 775, 630, 761, 493, 653, 486, 703, 190, 311, 297, 565, 876, 481, 527, 897, 148, 269, 658, 802, 531, 256, 810, 510, 27, 137, 818, 301, 118, 286, 781, 121, 388, 833, 408, 439, 115, 165, 267, 264, 254, 116, 261, 609, 945, 364, 513, 187, 395, 223, 361, 158, 916, 814, 166, 33, 444, 354, 896, 203, 887, 890, 521, 876, 814, 150, 885, 951, 438, 812, 63, 911, 990, 997, 905, 717, 640, 433, 455, 413, 177, 36, 360, 964, 90, 354, 571, 784, 903, 598, 507, 898, 282, 565, 435, 415, 356, 497, 893, 915, 77, 431, 227, 951, 562, 590, 421, 173, 434, 330, 840, 749, 325, 368, 246, 943, 664, 610, 188, 971, 882, 156, 240, 877, 59, 493, 363, 735, 482, 428, 252, 380, 6, 84, 640, 488, 153, 574, 565, 227, 360, 384, 236, 287, 574, 110, 860, 351, 184, 699, 135, 662, 20, 864, 170, 167, 526, 659, 432, 343, 479, 794, 545, 194, 838, 133, 553, 220, 289, 24, 564, 93, 984, 758, 908, 486, 866, 128, 480, 728, 540, 155, 255, 738, 38, 4, 735, 280, 563, 208, 240, 957, 949, 886, 469, 278, 733, 432, 783, 441, 625, 456, 618, 401, 488, 116, 525, 971, 113, 129, 135, 182, 751, 873, 339, 304, 138, 437, 775, 921, 432, 834, 188, 928, 680, 249, 488, 724, 832, 332, 730, 916, 178, 113, 239, 733, 964, 723, 899, 481, 561, 510, 419, 686, 30, 172, 273, 287, 165, 53, 220, 93, 366, 770, 762, 177, 283, 304, 60, 910, 736, 448, 239, 402, 1, 105, 455, 201, 380, 756, 801, 760, 184, 997, 927, 300, 557, 84, 437, 520, 820, 102, 111, 441, 290, 31, 718, 67, 836, 726, 131, 787, 546, 479, 346, 426, 324, 359, 285, 688, 76, 767, 288, 825, 41, 807, 183, 473, 699, 374, 373, 313, 410, 302, 419, 238, 8, 813, 416, 216, 529, 495, 984, 165, 56, 348, 917, 44, 213, 192, 844, 326, 436, 548, 938, 630, 724, 329, 184, 912, 549, 604, 382, 406, 590, 663, 172, 51, 314, 979, 211, 397, 52, 348, 865, 809, 321, 992, 435, 917, 304, 308, 989, 728, 434, 798, 479, 884, 736, 234, 584, 976, 461, 386, 852, 526, 76, 564, 204, 281, 228, 568, 572, 130, 151, 577, 647, 65, 41, 108, 594, 46, 265, 338, 106, 688, 955, 647, 524, 984, 377, 957, 168, 197, 672, 191, 935, 401, 164, 959, 744, 615, 583, 627, 229, 384, 739, 863, 553, 606, 576, 231, 238, 143, 851, 652, 774, 879, 635, 309, 112, 545, 91, 882, 845, 149, 352, 532, 773, 463, 932, 178, 565, 88, 202, 136, 281, 393, 709, 25, 911, 184, 667, 153, 32, 465, 461, 954, 150, 885, 434, 977, 92, 486, 887, 340, 357, 201, 251, 286, 168, 689, 930, 208, 338, 471, 534, 592, 909, 814, 62, 346, 764, 791, 351, 879, 72, 325, 482, 197, 661, 19, 946, 752, 200, 850, 562, 836, 990, 206, 912, 148, 129, 229, 383, 502, 663, 247, 652, 615, 436, 975, 430, 171, 22, 456, 376, 701, 703, 207, 178, 159, 305, 300, 760, 484, 93, 884, 260, 999, 743, 591, 224, 182, 454, 847, 535, 683, 719, 697, 777, 980, 696, 567, 326, 977, 203, 295, 350, 355, 1, 759, 402, 171, 400, 786, 986, 591, 554, 81, 820, 934, 877, 620, 376, 338, 800, 194, 23, 17, 754, 972, 129, 387, 887, 488, 221, 788, 992, 29, 539, 412, 495, 600, 380, 457, 599, 916, 362, 891, 943, 638, 731, 843, 389, 572, 493, 126, 822, 65, 428, 475, 703, 98, 614, 29, 605, 733, 939, 31, 787, 975, 265, 929, 822, 296, 454, 681, 917, 602, 266, 118, 261, 454, 283, 499, 381, 64, 8, 681, 408, 896, 946, 389, 92, 883, 878, 777, 834, 3, 378, 674, 844, 458, 312, 519, 772, 163, 321, 227, 170, 185, 22, 377, 248, 806, 841, 200, 580, 438, 653, 442, 948, 644, 959, 816, 573, 160, 834, 862, 492, 775, 381, 744, 549, 257, 41, 407, 386, 610, 813, 312, 710, 159, 108, 889, 914, 291, 257, 747, 286, 658, 163, 763, 931, 184, 101, 297, 701, 212, 446, 935, 582, 460, 151, 607, 507, 331, 459, 326, 794, 575, 570, 154, 438, 824, 258, 514, 439, 881, 621, 575, 393, 522, 835, 148, 42, 977, 922, 263, 986, 634, 988, 240, 968, 237, 715, 229, 402, 100, 972, 480, 542, 192, 378, 506, 920, 419, 361, 69, 667, 482, 669, 814, 52, 301, 656, 363, 713, 221, 414, 475, 344, 785, 529, 952, 454, 882, 727, 185, 601, 888, 7, 349, 200, 497, 554, 177, 582, 570, 782, 182, 390, 915, 640, 288, 828, 855, 719, 234, 468, 660, 544, 310, 213, 386, 809, 764, 535, 11, 426, 636, 223, 446, 543, 172, 171, 263, 968, 946, 54, 670, 880, 410, 620, 392, 951, 645, 363, 457, 967, ]
Time Consuming: 0.0781242847442627